<number of tasks>
50

<cycle time>
1000

<order strength>
0.202


<task times>
1 211
2 188
3 99
4 120
5 136
6 249
7 91
8 55
9 186
10 290
11 81
12 324
13 305
14 61
15 210
16 49
17 82
18 113
19 187
20 198
21 81
22 133
23 99
24 89
25 110
26 74
27 153
28 172
29 197
30 102
31 231
32 101
33 186
34 44
35 74
36 101
37 289
38 210
39 167
40 127
41 145
42 155
43 80
44 199
45 77
46 80
47 61
48 70
49 268
50 457

<precedence relations>
1,6
2,7
3,9
4,8
4,10
4,11
4,12
4,13
5,11
6,17
7,14
8,15
9,16
10,18
11,45
12,48
13,19
13,32
14,21
15,19
16,22
17,24
17,25
18,20
18,23
19,26
19,27
19,30
19,31
20,28
20,29
20,49
21,30
22,49
23,32
25,32
26,33
27,35
28,36
29,34
29,37
30,38
30,43
31,38
31,44
31,48
33,42
34,39
35,43
36,44
37,41
38,40
38,45
39,46
40,47
41,48
42,49
44,50

<end>
